BAYES
223
2 2 2 2 2 2 2 2 2 2 2 2 2 2 2 2 2 2 2 2 2 2 2 2 2 2 2 2 2 2 2 2 2 2 2 2 2 2 2 2 2 2 2 2 2 2 2 2 2 2 2 2 2 2 2 2 2 2 2 2 2 2 2 2 2 2 2 2 2 2 2 2 2 2 2 2 2 2 2 2 2 2 2 2 2 2 2 2 2 2 2 2 2 2 2 2 2 2 2 2 2 2 2 2 2 2 2 2 2 2 2 2 2 2 2 2 2 2 2 2 2 2 2 2 2 2 2 2 2 2 2 2 2 2 2 2 2 2 2 2 2 2 2 2 2 2 2 2 2 2 2 2 2 2 2 2 2 2 2 2 2 2 2 2 2 2 2 2 2 2 2 2 2 2 2 2 2 2 2 2 2 2 2 2 2 2 2 2 2 2 2 2 2 2 2 2 2 2 2 2 2 2 2 2 2 2 2 2 2 2 2 2 2 2 2 2 2 2 2 2 2 2 2
223
1  0
1  1
1  2
1  3
2 89 4
1  5
1  6
1  7
1  8
1  9
1  10
1  11
1  12
1  13
1  14
1  15
1  16
1  17
1  18
1  19
1  20
1  21
1  22
1  23
4 1 61 111 24
3 8 24 25
4 24 138 221 26
3 26 222 27
3 26 222 28
3 20 28 29
3 21 28 30
3 22 29 31
3 22 29 32
3 23 28 33
3 20 27 34
3 21 27 35
3 22 34 36
3 22 34 37
4 14 116 125 38
4 14 116 129 39
4 14 129 134 40
4 93 94 95 41
3 41 208 42
5 2 42 146 158 43
3 23 27 44
1  45
3 9 45 46
5 46 168 174 200 47
3 5 47 48
4 47 69 170 49
4 0 47 170 50
3 6 50 51
4 50 175 220 52
3 52 219 53
4 53 104 152 54
4 53 105 164 55
4 53 106 171 56
4 53 107 172 57
4 14 184 185 58
3 14 185 59
3 99 100 60
3 60 205 61
3 7 61 62
4 15 61 141 63
4 11 61 141 64
3 16 64 65
1  66
1  67
2 89 68
1  69
1  70
1  71
1  72
1  73
1  74
1  75
1  76
2 89 77
1  78
1  79
1  80
1  81
1  82
1  83
1  84
1  85
1  86
1  87
1  88
1  89
1  90
3 12 154 91
3 35 84 92
3 38 211 93
3 9 39 94
3 40 211 95
2 19 96
4 80 150 167 97
3 81 113 98
3 58 211 99
3 9 59 100
3 28 85 101
3 30 84 102
3 27 85 103
1  104
1  105
1  106
1  107
1  108
1  109
3 64 75 110
5 17 63 188 193 111
3 25 82 112
1  113
3 101 102 114
3 32 84 115
6 32 115 194 195 213 116
3 31 84 117
4 31 190 214 118
5 13 117 118 192 119
1  120
6 31 117 191 192 213 121
3 33 84 122
6 33 110 122 160 215 123
6 28 87 114 122 158 124
4 28 114 197 125
3 92 103 126
1  127
3 37 84 128
6 37 128 194 195 213 129
3 36 84 130
6 36 130 190 192 215 131
6 36 130 191 192 213 132
6 27 87 126 139 158 133
4 27 126 197 134
1  135
1  136
3 43 67 137
3 3 112 138
3 33 84 139
6 44 110 139 160 212 140
3 86 187 141
1  142
1  143
1  144
1  145
3 83 142 146
3 66 146 147
3 147 209 148
3 108 136 149
3 10 113 150
3 97 98 151
4 49 76 151 152
3 152 210 153
1  154
3 153 209 155
3 18 109 156
3 10 109 157
3 64 70 158
3 158 210 159
1  160
3 159 209 161
3 10 189 162
4 80 162 186 163
4 49 71 163 164
3 164 210 165
3 165 209 166
3 154 216 167
1  168
4 48 143 198 169
3 79 169 170
3 49 72 171
4 49 73 157 172
4 51 82 180 173
1  174
3 3 173 175
3 54 84 176
5 54 90 153 176 177
3 55 84 178
4 55 178 212 179
1  180
3 56 84 181
4 56 181 212 182
3 57 84 183
7 53 78 176 178 181 183 184
5 57 160 183 212 185
3 91 96 186
3 62 199 187
4 63 88 149 188
1  189
6 77 120 127 188 196 190
4 4 120 196 191
4 63 74 188 192
5 63 142 156 217 193
3 193 218 194
4 63 74 193 195
1  196
1  197
1  198
1  199
2 201 200
1  201
2 201 202
2 201 203
2 201 204
2 206 205
1  206
2 206 207
1  208
1  209
1  210
1  211
1  212
1  213
1  214
1  215
1  216
1  217
1  218
1  219
1  220
1  221
1  222

2
0.5 0.5
2
0.5 0.5
2
0.5 0.5
2
0.2 0.8
4
0.2 0.8 1.0 0.0
2
0.5 0.5
2
0.5 0.5
2
0.5 0.5
2
0.5 0.5
2
0.5 0.5
2
0.5 0.5
2
0.5 0.5
2
0.5 0.5
2
0.4 0.6
2
0.6 0.4
2
0.5 0.5
2
0.7 0.3
2
0.2 0.8
2
0.1 0.9
2
0.02 0.98
2
0.5 0.5
2
0.6 0.4
2
0.5 0.5
2
0.5 0.5
16
0.8 0.2 0.8 0.2 0.8 0.2 0.8 0.2 0.8 0.2 0.8 0.2 0.8 0.2 8e-05 0.99992
8
0.8 0.2 0.8 0.2 0.8 0.2 8e-05 0.99992
16
0.8 0.2 0.8 0.2 0.8 0.2 0.8 0.2 0.8 0.2 0.8 0.2 0.8 0.2 8e-05 0.99992
8
0.8 0.2 0.8 0.2 0.8 0.2 8e-05 0.99992
8
0.8 0.2 0.8 0.2 0.8 0.2 8e-05 0.99992
8
0.8 0.2 0.8 0.2 0.8 0.2 8e-05 0.99992
8
0.8 0.2 0.8 0.2 0.8 0.2 8e-05 0.99992
8
0.8 0.2 0.8 0.2 0.8 0.2 8e-05 0.99992
8
0.8 0.2 0.8 0.2 0.8 0.2 8e-05 0.99992
8
0.8 0.2 0.8 0.2 0.8 0.2 8e-05 0.99992
8
0.8 0.2 0.8 0.2 0.8 0.2 8e-05 0.99992
8
0.8 0.2 0.8 0.2 0.8 0.2 8e-05 0.99992
8
0.8 0.2 0.8 0.2 0.8 0.2 8e-05 0.99992
8
0.8 0.2 0.8 0.2 0.8 0.2 8e-05 0.99992
16
0.8 0.2 0.8 0.2 0.8 0.2 0.8 0.2 0.8 0.2 0.8 0.2 0.8 0.2 8e-05 0.99992
16
0.8 0.2 0.8 0.2 0.8 0.2 0.8 0.2 0.8 0.2 0.8 0.2 0.8 0.2 8e-05 0.99992
16
0.8 0.2 0.8 0.2 0.8 0.2 0.8 0.2 0.8 0.2 0.8 0.2 0.8 0.2 8e-05 0.99992
16
0.8 0.2 0.0 1.0 0.0 1.0 0.0 1.0 0.0 1.0 0.0 1.0 0.0 1.0 0.0 1.0
8
0.7 0.3 0.7 0.3 0.7 0.3 7e-05 0.99993
32
0.8 0.2 0.8 0.2 0.8 0.2 0.8 0.2 0.8 0.2 0.8 0.2 0.8 0.2 0.8 0.2 0.8 0.2 0.8 0.2 0.8 0.2 0.8 0.2 0.8 0.2 0.8 0.2 0.8 0.2 8e-05 0.99992
8
0.8 0.2 0.8 0.2 0.8 0.2 8e-05 0.99992
2
0.02 0.98
8
0.8 0.2 0.8 0.2 0.8 0.2 8e-05 0.99992
32
0.8 0.2 0.8 0.2 0.8 0.2 0.8 0.2 0.8 0.2 0.8 0.2 0.8 0.2 0.8 0.2 0.8 0.2 0.8 0.2 0.8 0.2 0.8 0.2 0.8 0.2 0.8 0.2 0.8 0.2 8e-05 0.99992
8
0.8 0.2 0.8 0.2 0.8 0.2 8e-05 0.99992
16
0.8 0.2 0.8 0.2 0.8 0.2 0.8 0.2 0.8 0.2 0.8 0.2 0.8 0.2 8e-05 0.99992
16
0.8 0.2 0.8 0.2 0.8 0.2 0.8 0.2 0.8 0.2 0.8 0.2 0.8 0.2 8e-05 0.99992
8
0.8 0.2 0.8 0.2 0.8 0.2 8e-05 0.99992
16
0.8 0.2 0.8 0.2 0.8 0.2 0.8 0.2 0.8 0.2 0.8 0.2 0.8 0.2 8e-05 0.99992
8
0.8 0.2 0.8 0.2 0.8 0.2 8e-05 0.99992
16
0.8 0.2 0.8 0.2 0.8 0.2 0.8 0.2 0.8 0.2 0.8 0.2 0.8 0.2 8e-05 0.99992
16
0.8 0.2 0.8 0.2 0.8 0.2 0.8 0.2 0.8 0.2 0.8 0.2 0.8 0.2 8e-05 0.99992
16
0.8 0.2 0.8 0.2 0.8 0.2 0.8 0.2 0.8 0.2 0.8 0.2 0.8 0.2 8e-05 0.99992
16
0.8 0.2 0.8 0.2 0.8 0.2 0.8 0.2 0.8 0.2 0.8 0.2 0.8 0.2 8e-05 0.99992
16
0.8 0.2 0.8 0.2 0.8 0.2 0.8 0.2 0.8 0.2 0.8 0.2 0.8 0.2 8e-05 0.99992
8
0.8 0.2 0.8 0.2 0.8 0.2 8e-05 0.99992
8
0.8 0.2 0.0 1.0 0.0 1.0 0.0 1.0
8
0.8 0.2 0.8 0.2 0.8 0.2 8e-05 0.99992
8
0.8 0.2 0.8 0.2 0.8 0.2 8e-05 0.99992
16
0.7 0.3 0.7 0.3 0.7 0.3 0.7 0.3 0.7 0.3 0.7 0.3 0.7 0.3 7e-05 0.99993
16
0.8 0.2 0.8 0.2 0.8 0.2 0.8 0.2 0.8 0.2 0.8 0.2 0.8 0.2 8e-05 0.99992
8
0.8 0.2 0.8 0.2 0.8 0.2 8e-05 0.99992
2
0.5 0.5
2
0.5 0.5
4
0.8 0.2 0.0 1.0
2
0.5 0.5
2
0.5 0.5
2
0.5 0.5
2
0.5 0.5
2
0.6 0.4
2
0.5 0.5
2
0.5 0.5
2
0.5 0.5
4
1.0 0.0 0.0 1.0
2
0.5 0.5
2
0.5 0.5
2
0.5 0.5
2
0.5 0.5
2
0.5 0.5
2
0.5 0.5
2
0.5 0.5
2
0.5 0.5
2
0.5 0.5
2
0.5 0.5
2
0.5 0.5
2
0.646 0.354
2
0.5 0.5
8
1.0 0.0 1.0 0.0 1.0 0.0 0.0001 0.9999
8
1.0 0.0 1.0 0.0 1.0 0.0 0.0001 0.9999
8
1.0 0.0 1.0 0.0 1.0 0.0 0.0001 0.9999
8
1.0 0.0 1.0 0.0 1.0 0.0 0.0001 0.9999
8
1.0 0.0 1.0 0.0 1.0 0.0 0.0001 0.9999
4
1.0 0.0 0.0001 0.9999
16
1.0 0.0 1.0 0.0 1.0 0.0 1.0 0.0 1.0 0.0 1.0 0.0 1.0 0.0 0.0001 0.9999
8
1.0 0.0 1.0 0.0 1.0 0.0 0.0001 0.9999
8
1.0 0.0 1.0 0.0 1.0 0.0 0.0001 0.9999
8
1.0 0.0 1.0 0.0 1.0 0.0 0.0001 0.9999
8
1.0 0.0 1.0 0.0 1.0 0.0 0.0001 0.9999
8
1.0 0.0 1.0 0.0 1.0 0.0 0.0001 0.9999
8
1.0 0.0 1.0 0.0 1.0 0.0 0.0001 0.9999
2
0.5 0.5
2
0.5 0.5
2
0.5 0.5
2
0.5 0.5
2
0.1 0.9
2
0.02 0.98
8
0.8 0.2 0.8 0.2 0.8 0.2 8e-05 0.99992
32
0.9 0.1 0.9 0.1 0.9 0.1 0.9 0.1 0.9 0.1 0.9 0.1 0.9 0.1 0.9 0.1 0.9 0.1 0.9 0.1 0.9 0.1 0.9 0.1 0.9 0.1 0.9 0.1 0.9 0.1 9e-05 0.99991
8
0.8 0.2 0.8 0.2 0.8 0.2 8e-05 0.99992
2
0.02 0.98
8
0.8 0.2 0.0 1.0 0.0 1.0 0.0 1.0
8
0.8 0.2 0.8 0.2 0.8 0.2 8e-05 0.99992
64
0.9 0.1 0.9 0.1 0.9 0.1 0.9 0.1 0.9 0.1 0.9 0.1 0.9 0.1 0.9 0.1 0.9 0.1 0.9 0.1 0.9 0.1 0.9 0.1 0.9 0.1 0.9 0.1 0.9 0.1 0.9 0.1 0.9 0.1 0.9 0.1 0.9 0.1 0.9 0.1 0.9 0.1 0.9 0.1 0.9 0.1 0.9 0.1 0.9 0.1 0.9 0.1 0.9 0.1 0.9 0.1 0.9 0.1 0.9 0.1 0.9 0.1 9e-05 0.99991
8
0.8 0.2 0.8 0.2 0.8 0.2 8e-05 0.99992
16
0.8 0.2 0.8 0.2 0.8 0.2 0.8 0.2 0.8 0.2 0.8 0.2 0.8 0.2 8e-05 0.99992
32
0.9 0.1 0.9 0.1 0.9 0.1 0.9 0.1 0.9 0.1 0.9 0.1 0.9 0.1 0.9 0.1 0.9 0.1 0.9 0.1 0.9 0.1 0.9 0.1 0.9 0.1 0.9 0.1 0.9 0.1 9e-05 0.99991
2
0.02 0.98
64
0.9 0.1 0.9 0.1 0.9 0.1 0.9 0.1 0.9 0.1 0.9 0.1 0.9 0.1 0.9 0.1 0.9 0.1 0.9 0.1 0.9 0.1 0.9 0.1 0.9 0.1 0.9 0.1 0.9 0.1 0.9 0.1 0.9 0.1 0.9 0.1 0.9 0.1 0.9 0.1 0.9 0.1 0.9 0.1 0.9 0.1 0.9 0.1 0.9 0.1 0.9 0.1 0.9 0.1 0.9 0.1 0.9 0.1 0.9 0.1 0.9 0.1 9e-05 0.99991
8
0.8 0.2 0.8 0.2 0.8 0.2 8e-05 0.99992
64
0.9 0.1 0.9 0.1 0.9 0.1 0.9 0.1 0.9 0.1 0.9 0.1 0.9 0.1 0.9 0.1 0.9 0.1 0.9 0.1 0.9 0.1 0.9 0.1 0.9 0.1 0.9 0.1 0.9 0.1 0.9 0.1 0.9 0.1 0.9 0.1 0.9 0.1 0.9 0.1 0.9 0.1 0.9 0.1 0.9 0.1 0.9 0.1 0.9 0.1 0.9 0.1 0.9 0.1 0.9 0.1 0.9 0.1 0.9 0.1 0.9 0.1 9e-05 0.99991
64
0.9 0.1 0.9 0.1 0.9 0.1 0.9 0.1 0.9 0.1 0.9 0.1 0.9 0.1 0.9 0.1 0.9 0.1 0.9 0.1 0.9 0.1 0.9 0.1 0.9 0.1 0.9 0.1 0.9 0.1 0.9 0.1 0.9 0.1 0.9 0.1 0.9 0.1 0.9 0.1 0.9 0.1 0.9 0.1 0.9 0.1 0.9 0.1 0.9 0.1 0.9 0.1 0.9 0.1 0.9 0.1 0.9 0.1 0.9 0.1 0.9 0.1 9e-05 0.99991
16
0.9 0.1 0.9 0.1 0.9 0.1 0.9 0.1 0.9 0.1 0.9 0.1 0.9 0.1 9e-05 0.99991
8
0.8 0.2 0.0 1.0 0.0 1.0 0.0 1.0
2
0.02 0.98
8
0.8 0.2 0.8 0.2 0.8 0.2 8e-05 0.99992
64
0.9 0.1 0.9 0.1 0.9 0.1 0.9 0.1 0.9 0.1 0.9 0.1 0.9 0.1 0.9 0.1 0.9 0.1 0.9 0.1 0.9 0.1 0.9 0.1 0.9 0.1 0.9 0.1 0.9 0.1 0.9 0.1 0.9 0.1 0.9 0.1 0.9 0.1 0.9 0.1 0.9 0.1 0.9 0.1 0.9 0.1 0.9 0.1 0.9 0.1 0.9 0.1 0.9 0.1 0.9 0.1 0.9 0.1 0.9 0.1 0.9 0.1 9e-05 0.99991
8
0.8 0.2 0.8 0.2 0.8 0.2 8e-05 0.99992
64
0.9 0.1 0.9 0.1 0.9 0.1 0.9 0.1 0.9 0.1 0.9 0.1 0.9 0.1 0.9 0.1 0.9 0.1 0.9 0.1 0.9 0.1 0.9 0.1 0.9 0.1 0.9 0.1 0.9 0.1 0.9 0.1 0.9 0.1 0.9 0.1 0.9 0.1 0.9 0.1 0.9 0.1 0.9 0.1 0.9 0.1 0.9 0.1 0.9 0.1 0.9 0.1 0.9 0.1 0.9 0.1 0.9 0.1 0.9 0.1 0.9 0.1 9e-05 0.99991
64
0.9 0.1 0.9 0.1 0.9 0.1 0.9 0.1 0.9 0.1 0.9 0.1 0.9 0.1 0.9 0.1 0.9 0.1 0.9 0.1 0.9 0.1 0.9 0.1 0.9 0.1 0.9 0.1 0.9 0.1 0.9 0.1 0.9 0.1 0.9 0.1 0.9 0.1 0.9 0.1 0.9 0.1 0.9 0.1 0.9 0.1 0.9 0.1 0.9 0.1 0.9 0.1 0.9 0.1 0.9 0.1 0.9 0.1 0.9 0.1 0.9 0.1 9e-05 0.99991
64
0.9 0.1 0.9 0.1 0.9 0.1 0.9 0.1 0.9 0.1 0.9 0.1 0.9 0.1 0.9 0.1 0.9 0.1 0.9 0.1 0.9 0.1 0.9 0.1 0.9 0.1 0.9 0.1 0.9 0.1 0.9 0.1 0.9 0.1 0.9 0.1 0.9 0.1 0.9 0.1 0.9 0.1 0.9 0.1 0.9 0.1 0.9 0.1 0.9 0.1 0.9 0.1 0.9 0.1 0.9 0.1 0.9 0.1 0.9 0.1 0.9 0.1 9e-05 0.99991
16
0.9 0.1 0.9 0.1 0.9 0.1 0.9 0.1 0.9 0.1 0.9 0.1 0.9 0.1 9e-05 0.99991
2
0.02 0.98
2
0.02 0.98
8
0.9 0.1 0.9 0.1 0.9 0.1 9e-05 0.99991
8
0.8 0.2 0.8 0.2 0.8 0.2 8e-05 0.99992
8
0.8 0.2 0.8 0.2 0.8 0.2 8e-05 0.99992
64
0.9 0.1 0.9 0.1 0.9 0.1 0.9 0.1 0.9 0.1 0.9 0.1 0.9 0.1 0.9 0.1 0.9 0.1 0.9 0.1 0.9 0.1 0.9 0.1 0.9 0.1 0.9 0.1 0.9 0.1 0.9 0.1 0.9 0.1 0.9 0.1 0.9 0.1 0.9 0.1 0.9 0.1 0.9 0.1 0.9 0.1 0.9 0.1 0.9 0.1 0.9 0.1 0.9 0.1 0.9 0.1 0.9 0.1 0.9 0.1 0.9 0.1 9e-05 0.99991
8
0.8 0.2 0.8 0.2 0.8 0.2 8e-05 0.99992
2
0.02 0.98
2
0.02 0.98
2
0.02 0.98
2
0.02 0.98
8
0.8 0.2 0.8 0.2 0.8 0.2 8e-05 0.99992
8
0.8 0.2 0.8 0.2 0.8 0.2 8e-05 0.99992
8
0.9 0.1 0.9 0.1 0.9 0.1 9e-05 0.99991
8
0.9 0.1 0.9 0.1 0.9 0.1 9e-05 0.99991
8
0.8 0.2 0.8 0.2 0.8 0.2 8e-05 0.99992
8
0.8 0.2 0.0 1.0 0.0 1.0 0.0 1.0
16
0.8 0.2 0.8 0.2 0.8 0.2 0.8 0.2 0.8 0.2 0.8 0.2 0.8 0.2 8e-05 0.99992
8
0.8 0.2 0.8 0.2 0.8 0.2 8e-05 0.99992
2
0.02 0.98
8
0.9 0.1 0.9 0.1 0.9 0.1 9e-05 0.99991
8
0.9 0.1 0.9 0.1 0.9 0.1 9e-05 0.99991
8
0.8 0.2 0.8 0.2 0.8 0.2 8e-05 0.99992
8
0.8 0.2 0.8 0.2 0.8 0.2 8e-05 0.99992
8
0.8 0.2 0.8 0.2 0.8 0.2 8e-05 0.99992
2
0.02 0.98
8
0.9 0.1 0.9 0.1 0.9 0.1 9e-05 0.99991
8
0.8 0.2 0.8 0.2 0.8 0.2 8e-05 0.99992
16
0.8 0.2 0.8 0.2 0.8 0.2 0.8 0.2 0.8 0.2 0.8 0.2 0.8 0.2 8e-05 0.99992
16
0.8 0.2 0.8 0.2 0.8 0.2 0.8 0.2 0.8 0.2 0.8 0.2 0.8 0.2 8e-05 0.99992
8
0.8 0.2 0.8 0.2 0.8 0.2 8e-05 0.99992
8
0.9 0.1 0.9 0.1 0.9 0.1 9e-05 0.99991
8
0.8 0.2 0.8 0.2 0.8 0.2 8e-05 0.99992
2
0.02 0.98
16
0.9 0.1 0.9 0.1 0.9 0.1 0.9 0.1 0.9 0.1 0.9 0.1 0.9 0.1 9e-05 0.99991
8
0.8 0.2 0.8 0.2 0.8 0.2 8e-05 0.99992
8
0.8 0.2 0.8 0.2 0.8 0.2 8e-05 0.99992
16
0.8 0.2 0.8 0.2 0.8 0.2 0.8 0.2 0.8 0.2 0.8 0.2 0.8 0.2 8e-05 0.99992
16
0.8 0.2 0.8 0.2 0.8 0.2 0.8 0.2 0.8 0.2 0.8 0.2 0.8 0.2 8e-05 0.99992
2
0.02 0.98
8
0.8 0.2 0.8 0.2 0.8 0.2 8e-05 0.99992
8
0.8 0.2 0.8 0.2 0.8 0.2 8e-05 0.99992
32
0.9 0.1 0.9 0.1 0.9 0.1 0.9 0.1 0.9 0.1 0.9 0.1 0.9 0.1 0.9 0.1 0.9 0.1 0.9 0.1 0.9 0.1 0.9 0.1 0.9 0.1 0.9 0.1 0.9 0.1 9e-05 0.99991
8
0.8 0.2 0.8 0.2 0.8 0.2 8e-05 0.99992
16
0.9 0.1 0.9 0.1 0.9 0.1 0.9 0.1 0.9 0.1 0.9 0.1 0.9 0.1 9e-05 0.99991
2
0.02 0.98
8
0.8 0.2 0.8 0.2 0.8 0.2 8e-05 0.99992
16
0.9 0.1 0.9 0.1 0.9 0.1 0.9 0.1 0.9 0.1 0.9 0.1 0.9 0.1 9e-05 0.99991
8
0.8 0.2 0.8 0.2 0.8 0.2 8e-05 0.99992
128
0.9 0.1 0.9 0.1 0.9 0.1 0.9 0.1 0.9 0.1 0.9 0.1 0.9 0.1 0.9 0.1 0.9 0.1 0.9 0.1 0.9 0.1 0.9 0.1 0.9 0.1 0.9 0.1 0.9 0.1 0.9 0.1 0.9 0.1 0.9 0.1 0.9 0.1 0.9 0.1 0.9 0.1 0.9 0.1 0.9 0.1 0.9 0.1 0.9 0.1 0.9 0.1 0.9 0.1 0.9 0.1 0.9 0.1 0.9 0.1 0.9 0.1 0.9 0.1 0.9 0.1 0.9 0.1 0.9 0.1 0.9 0.1 0.9 0.1 0.9 0.1 0.9 0.1 0.9 0.1 0.9 0.1 0.9 0.1 0.9 0.1 0.9 0.1 0.9 0.1 0.9 0.1 0.9 0.1 0.9 0.1 0.9 0.1 0.9 0.1 0.9 0.1 0.9 0.1 0.9 0.1 0.9 0.1 0.9 0.1 0.9 0.1 0.9 0.1 0.9 0.1 0.9 0.1 0.9 0.1 0.9 0.1 0.9 0.1 0.9 0.1 9e-05 0.99991
32
0.9 0.1 0.9 0.1 0.9 0.1 0.9 0.1 0.9 0.1 0.9 0.1 0.9 0.1 0.9 0.1 0.9 0.1 0.9 0.1 0.9 0.1 0.9 0.1 0.9 0.1 0.9 0.1 0.9 0.1 9e-05 0.99991
8
0.8 0.2 0.0 1.0 0.0 1.0 0.0 1.0
8
0.9 0.1 0.9 0.1 0.9 0.1 9e-05 0.99991
16
0.9 0.1 0.9 0.1 0.9 0.1 0.9 0.1 0.9 0.1 0.9 0.1 0.9 0.1 9e-05 0.99991
2
0.02 0.98
64
0.8 0.2 0.8 0.2 0.8 0.2 0.8 0.2 0.8 0.2 0.8 0.2 0.8 0.2 0.8 0.2 0.8 0.2 0.8 0.2 0.8 0.2 0.8 0.2 0.8 0.2 0.8 0.2 0.8 0.2 0.8 0.2 0.8 0.2 0.8 0.2 0.8 0.2 0.8 0.2 0.8 0.2 0.8 0.2 0.8 0.2 0.8 0.2 0.8 0.2 0.8 0.2 0.8 0.2 0.8 0.2 0.8 0.2 0.8 0.2 0.8 0.2 8e-05 0.99992
16
0.8 0.2 0.8 0.2 0.8 0.2 0.8 0.2 0.8 0.2 0.8 0.2 8e-05 0.99992 0.8 0.2
16
0.8 0.2 0.8 0.2 0.8 0.2 0.8 0.2 0.8 0.2 0.8 0.2 0.8 0.2 8e-05 0.99992
32
0.9 0.1 0.9 0.1 0.9 0.1 0.9 0.1 0.9 0.1 0.9 0.1 0.9 0.1 0.9 0.1 0.9 0.1 0.9 0.1 0.9 0.1 0.9 0.1 0.9 0.1 0.9 0.1 0.9 0.1 9e-05 0.99991
8
0.8 0.2 0.8 0.2 0.8 0.2 8e-05 0.99992
16
0.8 0.2 0.8 0.2 0.8 0.2 0.8 0.2 0.8 0.2 0.8 0.2 0.8 0.2 8e-05 0.99992
2
0.5 0.5
2
0.5 0.5
2
0.5 0.5
2
0.5 0.5
4
0.8 0.2 0.0 1.0
2
0.7 0.3
4
0.8 0.2 0.0 1.0
4
0.9 0.1 0.0 1.0
4
0.9 0.1 0.0 1.0
4
0.95 0.05 0.0 1.0
2
0.1 0.9
4
0.9 0.1 0.0 1.0
2
0.5 0.5
2
0.5 0.5
2
0.3 0.7
2
0.5 0.5
2
0.5 0.5
2
0.7 0.3
2
0.1 0.9
2
0.5 0.5
2
0.5 0.5
2
0.3 0.7
2
0.3 0.7
2
0.5 0.5
2
0.5 0.5
2
0.5 0.5
2
0.5 0.5